400
[81,84,94,95,97,98,101,103,108,109,120,121,125,128,129,143,145,146,149,154,159,185,191,192,195,203,209,212,221,222,227,231,242,243,245,252,255,260,262,273,274,278,299,305,317]
[1,1,1,1,1,1,1,1,2,2,1,1,1,1,1,1,1,1,2,2,1,1,1,1,2,1,1,1,1,1,1,1,1,1,1,1,1,1,1,1,1,1,1,1,1]
